# Objective value = 94
ln_10_13_D0 0
ln_10_13_D1 0
ln_10_13_D2 0
ln_10_14_D0 0
ln_10_14_D1 0
ln_10_14_D2 0
ln_10_15_D0 0
ln_10_15_D1 0
ln_10_15_D2 0
ln_10_16_D0 0
ln_10_16_D1 0
ln_10_16_D2 0
ln_10_17_D0 0
ln_10_17_D1 0
ln_10_17_D2 0
ln_10_18_D0 0
ln_10_18_D1 0
ln_10_18_D2 0
ln_10_19_D0 0
ln_10_19_D1 0
ln_10_19_D2 0
ln_10_20_D0 0
ln_10_20_D1 0
ln_10_20_D2 0
ln_10_21_D0 0
ln_10_21_D1 0
ln_10_21_D2 0
ln_10_22_D0 0
ln_10_22_D1 0
ln_10_22_D2 0
ln_10_23_D0 0
ln_10_23_D1 0
ln_10_23_D2 0
ln_10_24_D0 0
ln_10_24_D1 0
ln_10_24_D2 0
ln_10_25_D0 0
ln_10_25_D1 0
ln_10_25_D2 0
ln_10_26_D0 0
ln_10_27_D0 0
ln_10_28_D0 0
ln_10_29_D0 0
ln_11_13_D0 0
ln_11_13_D1 0
ln_11_13_D2 0
ln_11_14_D0 0
ln_11_14_D1 0
ln_11_14_D2 0
ln_11_15_D0 0
ln_11_15_D1 0
ln_11_15_D2 0
ln_11_16_D0 0
ln_11_16_D1 0
ln_11_16_D2 0
ln_11_17_D0 0
ln_11_17_D1 0
ln_11_17_D2 0
ln_11_18_D0 0
ln_11_18_D1 0
ln_11_18_D2 0
ln_11_19_D0 0
ln_11_19_D1 0
ln_11_19_D2 0
ln_11_20_D0 0
ln_11_20_D1 0
ln_11_20_D2 0
ln_11_21_D0 0
ln_11_21_D1 0
ln_11_21_D2 0
ln_11_22_D0 0
ln_11_22_D1 0
ln_11_22_D2 0
ln_11_23_D0 0
ln_11_23_D1 0
ln_11_23_D2 0
ln_11_24_D0 0
ln_11_24_D1 0
ln_11_24_D2 0
ln_11_25_D0 0
ln_11_25_D1 0
ln_11_25_D2 0
ln_11_26_D0 0
ln_11_27_D0 0
ln_11_28_D0 0
ln_11_29_D0 0
ln_12_13_D0 0
ln_12_13_D1 0
ln_12_13_D2 0
ln_12_14_D0 0
ln_12_14_D1 0
ln_12_14_D2 0
ln_12_15_D0 0
ln_12_15_D1 0
ln_12_15_D2 0
ln_12_16_D0 0
ln_12_16_D1 0
ln_12_16_D2 0
ln_12_17_D0 0
ln_12_17_D1 0
ln_12_17_D2 0
ln_12_18_D0 0
ln_12_18_D1 0
ln_12_18_D2 0
ln_12_19_D0 0
ln_12_19_D1 0
ln_12_19_D2 0
ln_12_20_D0 0
ln_12_20_D1 0
ln_12_20_D2 0
ln_12_21_D0 0
ln_12_21_D1 0
ln_12_21_D2 0
ln_12_22_D0 0
ln_12_22_D1 0
ln_12_22_D2 0
ln_12_23_D0 0
ln_12_23_D1 0
ln_12_23_D2 0
ln_12_24_D0 0
ln_12_24_D1 0
ln_12_24_D2 0
ln_12_25_D0 0
ln_12_25_D1 0
ln_12_25_D2 0
ln_12_26_D0 0
ln_12_27_D0 0
ln_12_28_D0 0
ln_12_29_D0 0
ln_13_13_D0 0
ln_13_13_D1 0
ln_13_13_D2 0
ln_13_14_D0 0
ln_13_14_D1 0
ln_13_14_D2 0
ln_13_15_D0 0
ln_13_15_D1 0
ln_13_15_D2 0
ln_13_16_D0 0
ln_13_16_D1 0
ln_13_16_D2 0
ln_13_17_D0 0
ln_13_17_D1 0
ln_13_17_D2 0
ln_13_18_D0 0
ln_13_18_D1 0
ln_13_18_D2 0
ln_13_19_D0 0
ln_13_19_D1 0
ln_13_19_D2 0
ln_13_20_D0 0
ln_13_20_D1 0
ln_13_20_D2 0
ln_13_21_D0 0
ln_13_21_D1 0
ln_13_21_D2 0
ln_13_22_D0 0
ln_13_22_D1 0
ln_13_22_D2 0
ln_13_23_D0 0
ln_13_23_D1 0
ln_13_23_D2 0
ln_13_24_D0 0
ln_13_24_D1 0
ln_13_24_D2 0
ln_13_25_D0 0
ln_13_25_D1 9.9999999999999967e-01
ln_13_25_D2 0
ln_13_26_D0 0
ln_13_27_D0 0
ln_13_28_D0 0
ln_13_29_D0 0
ln_14_13_D0 0
ln_14_13_D1 0
ln_14_13_D2 0
ln_14_13_D3 0
ln_14_14_D0 0
ln_14_14_D1 0
ln_14_14_D2 0
ln_14_14_D3 0
ln_14_15_D0 0
ln_14_15_D1 0
ln_14_15_D2 0
ln_14_15_D3 0
ln_14_16_D0 0
ln_14_16_D1 0
ln_14_16_D2 0
ln_14_16_D3 0
ln_14_17_D0 0
ln_14_17_D1 0
ln_14_17_D2 0
ln_14_17_D3 0
ln_14_18_D0 0
ln_14_18_D1 0
ln_14_18_D2 0
ln_14_18_D3 0
ln_14_19_D0 0
ln_14_19_D1 1
ln_14_19_D2 0
ln_14_19_D3 0
ln_14_20_D0 0
ln_14_20_D1 0
ln_14_20_D2 0
ln_14_20_D3 0
ln_14_21_D0 0
ln_14_21_D1 0
ln_14_21_D2 0
ln_14_21_D3 0
ln_14_22_D0 0
ln_14_22_D1 0
ln_14_22_D2 0
ln_14_22_D3 0
ln_14_23_D0 0
ln_14_23_D1 0
ln_14_23_D2 0
ln_14_23_D3 0
ln_14_24_D0 0
ln_14_24_D1 0
ln_14_24_D2 0
ln_14_24_D3 0
ln_14_25_D0 0
ln_14_25_D1 9.9999999999999967e-01
ln_14_25_D2 0
ln_14_25_D3 0
ln_14_26_D0 0
ln_14_27_D0 0
ln_14_28_D0 0
ln_14_29_D0 0
ln_15_13_D0 0
ln_15_13_D1 0
ln_15_13_D2 0
ln_15_13_D3 0
ln_15_14_D0 0
ln_15_14_D1 0
ln_15_14_D2 0
ln_15_14_D3 0
ln_15_15_D0 0
ln_15_15_D1 0
ln_15_15_D2 0
ln_15_15_D3 0
ln_15_16_D0 0
ln_15_16_D1 0
ln_15_16_D2 0
ln_15_16_D3 0
ln_15_17_D0 1
ln_15_17_D1 9.9999999999999989e-01
ln_15_17_D2 1
ln_15_17_D3 0
ln_15_18_D0 1
ln_15_18_D1 1
ln_15_18_D2 0
ln_15_18_D3 0
ln_15_19_D0 9.9999999999999956e-01
ln_15_19_D1 1
ln_15_19_D2 0
ln_15_19_D3 0
ln_15_20_D0 1
ln_15_20_D1 0
ln_15_20_D2 0
ln_15_20_D3 0
ln_15_21_D0 1
ln_15_21_D1 0
ln_15_21_D2 0
ln_15_21_D3 0
ln_15_22_D0 0
ln_15_22_D1 0
ln_15_22_D2 0
ln_15_22_D3 0
ln_15_23_D0 0
ln_15_23_D1 0
ln_15_23_D2 0
ln_15_23_D3 0
ln_15_24_D0 1
ln_15_24_D1 0
ln_15_24_D2 9.9999999999999967e-01
ln_15_24_D3 0
ln_15_25_D0 1
ln_15_25_D1 1
ln_15_25_D2 0
ln_15_25_D3 0
ln_15_26_D0 1
ln_15_27_D0 9.9999999999999989e-01
ln_15_28_D0 9.9999999999999967e-01
ln_15_29_D0 0
ln_16_13_D0 0
ln_16_13_D1 0
ln_16_13_D2 0
ln_16_13_D3 0
ln_16_14_D0 0
ln_16_14_D1 0
ln_16_14_D2 0
ln_16_14_D3 0
ln_16_15_D0 0
ln_16_15_D1 0
ln_16_15_D2 0
ln_16_15_D3 0
ln_16_16_D0 0
ln_16_16_D1 0
ln_16_16_D2 0
ln_16_16_D3 0
ln_16_17_D0 0
ln_16_17_D1 0
ln_16_17_D2 1
ln_16_17_D3 0
ln_16_18_D0 0
ln_16_18_D1 0
ln_16_18_D2 0
ln_16_18_D3 0
ln_16_19_D0 0
ln_16_19_D1 0
ln_16_19_D2 0
ln_16_19_D3 0
ln_16_20_D0 0
ln_16_20_D1 0
ln_16_20_D2 0
ln_16_20_D3 0
ln_16_21_D0 0
ln_16_21_D1 0
ln_16_21_D2 0
ln_16_21_D3 0
ln_16_22_D0 0
ln_16_22_D1 0
ln_16_22_D2 0
ln_16_22_D3 0
ln_16_23_D0 0
ln_16_23_D1 0
ln_16_23_D2 0
ln_16_23_D3 0
ln_16_24_D0 0
ln_16_24_D1 9.9999999999999967e-01
ln_16_24_D2 9.9999999999999967e-01
ln_16_24_D3 0
ln_16_25_D0 0
ln_16_25_D1 9.9999999999999967e-01
ln_16_25_D2 0
ln_16_25_D3 0
ln_16_26_D0 0
ln_16_27_D0 0
ln_16_28_D0 0
ln_16_29_D0 0
ln_17_13_D0 0
ln_17_13_D1 0
ln_17_13_D2 0
ln_17_13_D3 0
ln_17_14_D0 0
ln_17_14_D1 0
ln_17_14_D2 0
ln_17_14_D3 0
ln_17_15_D0 1
ln_17_15_D1 1
ln_17_15_D2 1
ln_17_15_D3 0
ln_17_16_D0 1
ln_17_16_D1 1
ln_17_16_D2 0
ln_17_16_D3 0
ln_17_17_D0 0
ln_17_17_D1 9.9999999999999956e-01
ln_17_17_D2 0
ln_17_17_D3 0
ln_17_18_D0 0
ln_17_18_D1 1
ln_17_18_D2 0
ln_17_18_D3 0
ln_17_19_D0 0
ln_17_19_D1 0
ln_17_19_D2 0
ln_17_19_D3 0
ln_17_20_D0 0
ln_17_20_D1 0
ln_17_20_D2 9.9999999999999989e-01
ln_17_20_D3 0
ln_17_21_D0 0
ln_17_21_D1 0
ln_17_21_D2 0
ln_17_21_D3 0
ln_17_22_D0 1
ln_17_22_D1 0
ln_17_22_D2 0
ln_17_22_D3 0
ln_17_23_D0 1
ln_17_23_D1 9.9999999999999989e-01
ln_17_23_D2 0
ln_17_23_D3 0
ln_17_24_D0 0
ln_17_24_D1 1
ln_17_24_D2 0
ln_17_24_D3 0
ln_17_25_D0 0
ln_17_25_D1 0
ln_17_25_D2 9.9999999999999967e-01
ln_17_25_D3 0
ln_17_26_D0 0
ln_17_27_D0 0
ln_17_28_D0 0
ln_17_29_D0 9.9999999999999967e-01
ln_18_13_D0 0
ln_18_13_D1 0
ln_18_13_D2 0
ln_18_13_D3 0
ln_18_14_D0 0
ln_18_14_D1 0
ln_18_14_D2 0
ln_18_14_D3 0
ln_18_15_D0 0
ln_18_15_D1 0
ln_18_15_D2 1
ln_18_15_D3 1
ln_18_16_D0 0
ln_18_16_D1 0
ln_18_16_D2 0
ln_18_16_D3 0
ln_18_17_D0 0
ln_18_17_D1 0
ln_18_17_D2 0
ln_18_17_D3 0
ln_18_18_D0 0
ln_18_18_D1 0
ln_18_18_D2 0
ln_18_18_D3 0
ln_18_19_D0 0
ln_18_19_D1 0
ln_18_19_D2 0
ln_18_19_D3 0
ln_18_20_D0 0
ln_18_20_D1 0
ln_18_20_D2 1
ln_18_20_D3 0
ln_18_21_D0 0
ln_18_21_D1 0
ln_18_21_D2 0
ln_18_21_D3 0
ln_18_22_D0 0
ln_18_22_D1 0
ln_18_22_D2 0
ln_18_22_D3 9.9999999999999967e-01
ln_18_23_D0 0
ln_18_23_D1 0
ln_18_23_D2 0
ln_18_23_D3 0
ln_18_24_D0 0
ln_18_24_D1 0
ln_18_24_D2 0
ln_18_24_D3 0
ln_18_25_D0 0
ln_18_25_D1 0
ln_18_25_D2 9.9999999999999967e-01
ln_18_25_D3 0
ln_18_26_D0 0
ln_18_27_D0 0
ln_18_28_D0 0
ln_18_29_D0 0
ln_19_13_D0 0
ln_19_13_D1 0
ln_19_13_D2 0
ln_19_13_D3 0
ln_19_14_D0 0
ln_19_14_D1 0
ln_19_14_D2 0
ln_19_14_D3 0
ln_19_15_D0 0
ln_19_15_D1 1
ln_19_15_D2 1
ln_19_15_D3 1
ln_19_16_D0 0
ln_19_16_D1 0
ln_19_16_D2 0
ln_19_16_D3 1
ln_19_17_D0 0
ln_19_17_D1 0
ln_19_17_D2 0
ln_19_17_D3 0
ln_19_18_D0 0
ln_19_18_D1 0
ln_19_18_D2 0
ln_19_18_D3 0
ln_19_19_D0 0
ln_19_19_D1 0
ln_19_19_D2 0
ln_19_19_D3 0
ln_19_20_D0 0
ln_19_20_D1 0
ln_19_20_D2 1
ln_19_20_D3 0
ln_19_21_D0 0
ln_19_21_D1 0
ln_19_21_D2 0
ln_19_21_D3 0
ln_19_22_D0 0
ln_19_22_D1 0
ln_19_22_D2 0
ln_19_22_D3 9.9999999999999989e-01
ln_19_23_D0 0
ln_19_23_D1 0
ln_19_23_D2 0
ln_19_23_D3 9.9999999999999967e-01
ln_19_24_D0 0
ln_19_24_D1 1
ln_19_24_D2 0
ln_19_24_D3 9.9999999999999956e-01
ln_19_25_D0 0
ln_19_25_D1 0
ln_19_25_D2 1
ln_19_25_D3 0
ln_19_26_D0 0
ln_19_27_D0 0
ln_19_28_D0 0
ln_19_29_D0 0
ln_20_13_D0 0
ln_20_13_D1 0
ln_20_13_D2 0
ln_20_13_D3 0
ln_20_14_D0 0
ln_20_14_D1 0
ln_20_14_D2 0
ln_20_14_D3 0
ln_20_15_D0 0
ln_20_15_D1 1
ln_20_15_D2 1
ln_20_15_D3 0
ln_20_16_D0 0
ln_20_16_D1 0
ln_20_16_D2 0
ln_20_16_D3 0
ln_20_17_D0 1
ln_20_17_D1 9.9999999999999956e-01
ln_20_17_D2 0
ln_20_17_D3 0
ln_20_18_D0 1
ln_20_18_D1 0
ln_20_18_D2 0
ln_20_18_D3 0
ln_20_19_D0 1
ln_20_19_D1 0
ln_20_19_D2 0
ln_20_19_D3 0
ln_20_20_D0 9.9999999999999956e-01
ln_20_20_D1 0
ln_20_20_D2 1
ln_20_20_D3 0
ln_20_21_D0 1
ln_20_21_D1 0
ln_20_21_D2 0
ln_20_21_D3 0
ln_20_22_D0 0
ln_20_22_D1 9.9999999999999989e-01
ln_20_22_D2 0
ln_20_22_D3 0
ln_20_23_D0 0
ln_20_23_D1 1
ln_20_23_D2 0
ln_20_23_D3 1.1102230246251565e-16
ln_20_24_D0 1
ln_20_24_D1 1
ln_20_24_D2 0
ln_20_24_D3 0
ln_20_25_D0 9.9999999999999967e-01
ln_20_25_D1 0
ln_20_25_D2 9.9999999999999967e-01
ln_20_25_D3 0
ln_20_26_D0 1
ln_20_27_D0 1
ln_20_28_D0 9.9999999999999989e-01
ln_20_29_D0 0
ln_21_13_D0 0
ln_21_13_D1 0
ln_21_13_D2 0
ln_21_13_D3 0
ln_21_14_D0 0
ln_21_14_D1 0
ln_21_14_D2 0
ln_21_14_D3 0
ln_21_15_D0 0
ln_21_15_D1 0
ln_21_15_D2 1
ln_21_15_D3 1
ln_21_16_D0 0
ln_21_16_D1 0
ln_21_16_D2 0
ln_21_16_D3 1
ln_21_17_D0 0
ln_21_17_D1 0
ln_21_17_D2 0
ln_21_17_D3 1
ln_21_18_D0 0
ln_21_18_D1 0
ln_21_18_D2 0
ln_21_18_D3 0
ln_21_19_D0 0
ln_21_19_D1 0
ln_21_19_D2 0
ln_21_19_D3 0
ln_21_20_D0 0
ln_21_20_D1 0
ln_21_20_D2 1
ln_21_20_D3 0
ln_21_21_D0 0
ln_21_21_D1 0
ln_21_21_D2 0
ln_21_21_D3 0
ln_21_22_D0 0
ln_21_22_D1 0
ln_21_22_D2 0
ln_21_22_D3 0
ln_21_23_D0 0
ln_21_23_D1 0
ln_21_23_D2 0
ln_21_23_D3 9.9999999999999967e-01
ln_21_24_D0 0
ln_21_24_D1 0
ln_21_24_D2 0
ln_21_24_D3 1
ln_21_25_D0 0
ln_21_25_D1 0
ln_21_25_D2 1
ln_21_25_D3 9.9999999999999967e-01
ln_21_26_D0 0
ln_21_27_D0 0
ln_21_28_D0 0
ln_21_29_D0 0
ln_22_13_D0 0
ln_22_13_D1 0
ln_22_13_D2 0
ln_22_13_D3 0
ln_22_14_D0 0
ln_22_14_D1 0
ln_22_14_D2 0
ln_22_14_D3 0
ln_22_15_D0 0
ln_22_15_D1 0
ln_22_15_D2 0
ln_22_15_D3 0
ln_22_16_D0 0
ln_22_16_D1 0
ln_22_16_D2 0
ln_22_16_D3 0
ln_22_17_D0 0
ln_22_17_D1 0
ln_22_17_D2 9.9999999999999956e-01
ln_22_17_D3 1
ln_22_18_D0 0
ln_22_18_D1 0
ln_22_18_D2 0
ln_22_18_D3 0
ln_22_19_D0 0
ln_22_19_D1 0
ln_22_19_D2 0
ln_22_19_D3 0
ln_22_20_D0 0
ln_22_20_D1 0
ln_22_20_D2 0
ln_22_20_D3 0
ln_22_21_D0 0
ln_22_21_D1 0
ln_22_21_D2 0
ln_22_21_D3 3.3306690738754696e-16
ln_22_22_D0 0
ln_22_22_D1 0
ln_22_22_D2 0
ln_22_22_D3 0
ln_22_23_D0 0
ln_22_23_D1 0
ln_22_23_D2 0
ln_22_23_D3 0
ln_22_24_D0 0
ln_22_24_D1 0
ln_22_24_D2 1
ln_22_24_D3 0
ln_22_25_D0 0
ln_22_25_D1 0
ln_22_25_D2 0
ln_22_25_D3 0
ln_22_26_D0 0
ln_22_27_D0 0
ln_22_28_D0 0
ln_22_29_D0 0
ln_23_13_D0 0
ln_23_13_D1 0
ln_23_13_D2 0
ln_23_13_D3 0
ln_23_14_D0 0
ln_23_14_D1 0
ln_23_14_D2 0
ln_23_14_D3 0
ln_23_15_D0 0
ln_23_15_D1 0
ln_23_15_D2 0
ln_23_15_D3 0
ln_23_16_D0 0
ln_23_16_D1 0
ln_23_16_D2 0
ln_23_16_D3 0
ln_23_17_D0 0
ln_23_17_D1 0
ln_23_17_D2 9.9999999999999956e-01
ln_23_17_D3 9.9999999999999967e-01
ln_23_18_D0 0
ln_23_18_D1 0
ln_23_18_D2 0
ln_23_18_D3 0
ln_23_19_D0 0
ln_23_19_D1 0
ln_23_19_D2 0
ln_23_19_D3 0
ln_23_20_D0 0
ln_23_20_D1 0
ln_23_20_D2 0
ln_23_20_D3 0
ln_23_21_D0 0
ln_23_21_D1 0
ln_23_21_D2 0
ln_23_21_D3 0
ln_23_22_D0 0
ln_23_22_D1 0
ln_23_22_D2 0
ln_23_22_D3 0
ln_23_23_D0 0
ln_23_23_D1 0
ln_23_23_D2 0
ln_23_23_D3 0
ln_23_24_D0 0
ln_23_24_D1 0
ln_23_24_D2 1
ln_23_24_D3 1
ln_23_25_D0 0
ln_23_25_D1 0
ln_23_25_D2 0
ln_23_25_D3 0
ln_23_26_D0 0
ln_23_27_D0 0
ln_23_28_D0 0
ln_23_29_D0 0
ln_24_13_D0 0
ln_24_13_D1 0
ln_24_13_D2 0
ln_24_13_D3 0
ln_24_14_D0 0
ln_24_14_D1 0
ln_24_14_D2 0
ln_24_14_D3 0
ln_24_15_D0 0
ln_24_15_D1 0
ln_24_15_D2 0
ln_24_15_D3 0
ln_24_16_D0 0
ln_24_16_D1 0
ln_24_16_D2 0
ln_24_16_D3 0
ln_24_17_D0 0
ln_24_17_D1 0
ln_24_17_D2 1
ln_24_17_D3 1
ln_24_18_D0 0
ln_24_18_D1 0
ln_24_18_D2 0
ln_24_18_D3 1
ln_24_19_D0 0
ln_24_19_D1 0
ln_24_19_D2 0
ln_24_19_D3 9.9999999999999956e-01
ln_24_20_D0 0
ln_24_20_D1 0
ln_24_20_D2 0
ln_24_20_D3 0
ln_24_21_D0 0
ln_24_21_D1 0
ln_24_21_D2 0
ln_24_21_D3 0
ln_24_22_D0 0
ln_24_22_D1 0
ln_24_22_D2 0
ln_24_22_D3 0
ln_24_23_D0 0
ln_24_23_D1 0
ln_24_23_D2 0
ln_24_23_D3 0
ln_24_24_D0 0
ln_24_24_D1 0
ln_24_24_D2 9.9999999999999989e-01
ln_24_24_D3 9.9999999999999989e-01
ln_24_25_D0 0
ln_24_25_D1 0
ln_24_25_D2 0
ln_24_25_D3 9.9999999999999967e-01
ln_24_26_D0 0
ln_24_27_D0 0
ln_24_28_D0 0
ln_24_29_D0 0
ln_25_13_D0 0
ln_25_13_D1 0
ln_25_13_D2 0
ln_25_13_D3 0
ln_25_14_D0 0
ln_25_14_D1 0
ln_25_14_D2 0
ln_25_14_D3 0
ln_25_15_D0 0
ln_25_15_D1 0
ln_25_15_D2 0
ln_25_15_D3 0
ln_25_16_D0 0
ln_25_16_D1 0
ln_25_16_D2 0
ln_25_16_D3 0
ln_25_17_D0 0
ln_25_17_D1 0
ln_25_17_D2 0
ln_25_17_D3 0
ln_25_18_D0 0
ln_25_18_D1 0
ln_25_18_D2 0
ln_25_18_D3 0
ln_25_19_D0 0
ln_25_19_D1 0
ln_25_19_D2 0
ln_25_19_D3 0
ln_25_20_D0 0
ln_25_20_D1 0
ln_25_20_D2 0
ln_25_20_D3 0
ln_25_21_D0 0
ln_25_21_D1 0
ln_25_21_D2 0
ln_25_21_D3 0
ln_25_22_D0 0
ln_25_22_D1 0
ln_25_22_D2 0
ln_25_22_D3 0
ln_25_23_D0 0
ln_25_23_D1 0
ln_25_23_D2 0
ln_25_23_D3 0
ln_25_24_D0 0
ln_25_24_D1 0
ln_25_24_D2 0
ln_25_24_D3 0
ln_25_25_D0 0
ln_25_25_D1 0
ln_25_25_D2 0
ln_25_25_D3 1
ln_25_26_D0 0
ln_25_27_D0 0
ln_25_28_D0 0
ln_25_29_D0 0
ln_26_13_D2 0
ln_26_13_D3 0
ln_26_14_D2 0
ln_26_14_D3 0
ln_26_15_D2 0
ln_26_15_D3 0
ln_26_16_D2 0
ln_26_16_D3 0
ln_26_17_D2 0
ln_26_17_D3 0
ln_26_18_D2 0
ln_26_18_D3 0
ln_26_19_D2 0
ln_26_19_D3 0
ln_26_20_D2 0
ln_26_20_D3 0
ln_26_21_D2 0
ln_26_21_D3 0
ln_26_22_D2 0
ln_26_22_D3 0
ln_26_23_D2 0
ln_26_23_D3 0
ln_26_24_D2 0
ln_26_24_D3 0
ln_26_25_D2 0
ln_26_25_D3 0
ln_27_13_D2 0
ln_27_13_D3 0
ln_27_14_D2 0
ln_27_14_D3 0
ln_27_15_D2 0
ln_27_15_D3 0
ln_27_16_D2 0
ln_27_16_D3 0
ln_27_17_D2 0
ln_27_17_D3 0
ln_27_18_D2 0
ln_27_18_D3 0
ln_27_19_D2 0
ln_27_19_D3 0
ln_27_20_D2 0
ln_27_20_D3 0
ln_27_21_D2 0
ln_27_21_D3 0
ln_27_22_D2 0
ln_27_22_D3 0
ln_27_23_D2 0
ln_27_23_D3 0
ln_27_24_D2 0
ln_27_24_D3 0
ln_27_25_D2 0
ln_27_25_D3 0
ln_28_13_D2 0
ln_28_13_D3 0
ln_28_14_D2 0
ln_28_14_D3 0
ln_28_15_D2 0
ln_28_15_D3 0
ln_28_16_D2 0
ln_28_16_D3 0
ln_28_17_D2 0
ln_28_17_D3 0
ln_28_18_D2 0
ln_28_18_D3 0
ln_28_19_D2 0
ln_28_19_D3 0
ln_28_20_D2 0
ln_28_20_D3 0
ln_28_21_D2 0
ln_28_21_D3 0
ln_28_22_D2 0
ln_28_22_D3 0
ln_28_23_D2 0
ln_28_23_D3 0
ln_28_24_D2 0
ln_28_24_D3 0
ln_28_25_D2 0
ln_28_25_D3 0
ln_29_13_D2 0
ln_29_13_D3 0
ln_29_14_D2 0
ln_29_14_D3 0
ln_29_15_D2 0
ln_29_15_D3 0
ln_29_16_D2 0
ln_29_16_D3 0
ln_29_17_D2 0
ln_29_17_D3 0
ln_29_18_D2 0
ln_29_18_D3 0
ln_29_19_D2 0
ln_29_19_D3 0
ln_29_20_D2 0
ln_29_20_D3 0
ln_29_21_D2 0
ln_29_21_D3 0
ln_29_22_D2 0
ln_29_22_D3 0
ln_29_23_D2 0
ln_29_23_D3 0
ln_29_24_D2 0
ln_29_24_D3 0
ln_29_25_D2 0
ln_29_25_D3 0
dot_10,13 0
dot_10,14 0
dot_10,15 0
dot_10,16 0
dot_10,17 0
dot_10,18 0
dot_10,19 0
dot_10,20 0
dot_10,21 0
dot_10,22 0
dot_10,23 0
dot_10,24 0
dot_10,25 0
dot_10,26 0
dot_10,27 0
dot_10,28 0
dot_10,29 0
dot_11,13 0
dot_11,14 0
dot_11,15 0
dot_11,16 0
dot_11,17 0
dot_11,18 0
dot_11,19 0
dot_11,20 0
dot_11,21 0
dot_11,22 0
dot_11,23 0
dot_11,24 0
dot_11,25 0
dot_11,26 0
dot_11,27 0
dot_11,28 0
dot_11,29 0
dot_12,13 0
dot_12,14 0
dot_12,15 0
dot_12,16 0
dot_12,17 0
dot_12,18 0
dot_12,19 0
dot_12,20 0
dot_12,21 0
dot_12,22 0
dot_12,23 0
dot_12,24 0
dot_12,25 0
dot_12,26 0
dot_12,27 0
dot_12,28 0
dot_12,29 0
dot_13,13 0
dot_13,14 0
dot_13,15 0
dot_13,16 0
dot_13,17 0
dot_13,18 0
dot_13,19 0
dot_13,20 0
dot_13,21 0
dot_13,22 0
dot_13,23 0
dot_13,24 0
dot_13,25 1
dot_13,26 0
dot_13,27 0
dot_13,28 0
dot_13,29 0
dot_14,13 0
dot_14,14 0
dot_14,15 0
dot_14,16 0
dot_14,17 0
dot_14,18 0
dot_14,19 1
dot_14,20 0
dot_14,21 0
dot_14,22 0
dot_14,23 0
dot_14,24 0
dot_14,25 1
dot_14,26 1
dot_14,27 0
dot_14,28 0
dot_14,29 0
dot_15,13 0
dot_15,14 0
dot_15,15 0
dot_15,16 0
dot_15,17 1
dot_15,18 1
dot_15,19 1
dot_15,20 1
dot_15,21 1
dot_15,22 0
dot_15,23 0
dot_15,24 1
dot_15,25 1
dot_15,26 1
dot_15,27 1
dot_15,28 1
dot_15,29 0
dot_16,13 0
dot_16,14 0
dot_16,15 0
dot_16,16 0
dot_16,17 1
dot_16,18 1
dot_16,19 1
dot_16,20 1
dot_16,21 1
dot_16,22 0
dot_16,23 0
dot_16,24 1
dot_16,25 1
dot_16,26 1
dot_16,27 1
dot_16,28 1
dot_16,29 0
dot_17,13 0
dot_17,14 0
dot_17,15 1
dot_17,16 1
dot_17,17 1
dot_17,18 1
dot_17,19 1
dot_17,20 1
dot_17,21 1
dot_17,22 1
dot_17,23 1
dot_17,24 1
dot_17,25 1
dot_17,26 1
dot_17,27 1
dot_17,28 1
dot_17,29 1
dot_18,13 0
dot_18,14 0
dot_18,15 1
dot_18,16 1
dot_18,17 1
dot_18,18 1
dot_18,19 1
dot_18,20 1
dot_18,21 1
dot_18,22 1
dot_18,23 1
dot_18,24 1
dot_18,25 1
dot_18,26 1
dot_18,27 1
dot_18,28 1
dot_18,29 1
dot_19,13 0
dot_19,14 0
dot_19,15 1
dot_19,16 1
dot_19,17 1
dot_19,18 1
dot_19,19 1
dot_19,20 1
dot_19,21 1
dot_19,22 1
dot_19,23 1
dot_19,24 1
dot_19,25 1
dot_19,26 1
dot_19,27 1
dot_19,28 1
dot_19,29 1
dot_20,13 0
dot_20,14 0
dot_20,15 1
dot_20,16 1
dot_20,17 1
dot_20,18 1
dot_20,19 1
dot_20,20 1
dot_20,21 1
dot_20,22 1
dot_20,23 1
dot_20,24 1
dot_20,25 1
dot_20,26 1
dot_20,27 1
dot_20,28 1
dot_20,29 1
dot_21,13 0
dot_21,14 0
dot_21,15 1
dot_21,16 1
dot_21,17 1
dot_21,18 1
dot_21,19 1
dot_21,20 1
dot_21,21 1
dot_21,22 1
dot_21,23 1
dot_21,24 1
dot_21,25 1
dot_21,26 1
dot_21,27 1
dot_21,28 1
dot_21,29 1
dot_22,13 0
dot_22,14 0
dot_22,15 0
dot_22,16 0
dot_22,17 1
dot_22,18 1
dot_22,19 1
dot_22,20 1
dot_22,21 1
dot_22,22 0
dot_22,23 0
dot_22,24 1
dot_22,25 1
dot_22,26 1
dot_22,27 1
dot_22,28 1
dot_22,29 0
dot_23,13 0
dot_23,14 0
dot_23,15 0
dot_23,16 0
dot_23,17 1
dot_23,18 1
dot_23,19 1
dot_23,20 1
dot_23,21 1
dot_23,22 0
dot_23,23 0
dot_23,24 1
dot_23,25 1
dot_23,26 1
dot_23,27 1
dot_23,28 1
dot_23,29 0
dot_24,13 0
dot_24,14 0
dot_24,15 0
dot_24,16 0
dot_24,17 1
dot_24,18 1
dot_24,19 1
dot_24,20 1
dot_24,21 1
dot_24,22 0
dot_24,23 0
dot_24,24 1
dot_24,25 1
dot_24,26 1
dot_24,27 1
dot_24,28 1
dot_24,29 0
dot_25,13 0
dot_25,14 0
dot_25,15 0
dot_25,16 0
dot_25,17 0
dot_25,18 0
dot_25,19 0
dot_25,20 0
dot_25,21 0
dot_25,22 0
dot_25,23 0
dot_25,24 0
dot_25,25 1
dot_25,26 0
dot_25,27 0
dot_25,28 0
dot_25,29 0
dot_26,13 0
dot_26,14 0
dot_26,15 0
dot_26,16 0
dot_26,17 0
dot_26,18 0
dot_26,19 0
dot_26,20 0
dot_26,21 0
dot_26,22 0
dot_26,23 0
dot_26,24 0
dot_26,25 0
dot_26,26 0
dot_26,27 0
dot_26,28 0
dot_26,29 0
dot_27,13 0
dot_27,14 0
dot_27,15 0
dot_27,16 0
dot_27,17 0
dot_27,18 0
dot_27,19 0
dot_27,20 0
dot_27,21 0
dot_27,22 0
dot_27,23 0
dot_27,24 0
dot_27,25 0
dot_27,26 0
dot_27,27 0
dot_27,28 0
dot_27,29 0
dot_28,13 0
dot_28,14 0
dot_28,15 0
dot_28,16 0
dot_28,17 0
dot_28,18 0
dot_28,19 0
dot_28,20 0
dot_28,21 0
dot_28,22 0
dot_28,23 0
dot_28,24 0
dot_28,25 0
dot_28,26 0
dot_28,27 0
dot_28,28 0
dot_28,29 0
dot_29,13 0
dot_29,14 0
dot_29,15 0
dot_29,16 0
dot_29,17 0
dot_29,18 0
dot_29,19 0
dot_29,20 0
dot_29,21 0
dot_29,22 0
dot_29,23 0
dot_29,24 0
dot_29,25 0
dot_29,26 0
dot_29,27 0
dot_29,28 0
dot_29,29 0
